p edge 200 3932
e 1 101
e 1 106
e 1 107
e 1 109
e 1 110
e 1 113
e 1 117
e 1 120
e 1 122
e 1 132
e 1 136
e 1 138
e 1 141
e 1 145
e 1 146
e 1 149
e 1 150
e 1 151
e 1 152
e 1 153
e 1 154
e 1 156
e 1 162
e 1 165
e 1 166
e 1 168
e 1 174
e 1 177
e 1 179
e 1 183
e 1 185
e 1 186
e 1 187
e 1 189
e 1 191
e 1 196
e 1 197
e 1 199
e 2 102
e 2 104
e 2 107
e 2 108
e 2 109
e 2 111
e 2 112
e 2 113
e 2 115
e 2 116
e 2 120
e 2 121
e 2 123
e 2 125
e 2 130
e 2 133
e 2 135
e 2 137
e 2 141
e 2 146
e 2 148
e 2 150
e 2 151
e 2 152
e 2 153
e 2 157
e 2 158
e 2 160
e 2 161
e 2 166
e 2 168
e 2 169
e 2 171
e 2 173
e 2 174
e 2 178
e 2 179
e 2 184
e 2 186
e 2 187
e 2 189
e 2 190
e 2 191
e 2 195
e 2 197
e 2 199
e 2 200
e 3 103
e 3 104
e 3 107
e 3 108
e 3 109
e 3 111
e 3 116
e 3 117
e 3 118
e 3 119
e 3 123
e 3 129
e 3 140
e 3 141
e 3 143
e 3 147
e 3 149
e 3 151
e 3 153
e 3 164
e 3 175
e 3 177
e 3 179
e 3 180
e 3 181
e 3 184
e 3 185
e 3 188
e 3 195
e 3 196
e 3 197
e 3 199
e 3 200
e 4 103
e 4 105
e 4 108
e 4 111
e 4 117
e 4 118
e 4 120
e 4 121
e 4 122
e 4 125
e 4 127
e 4 129
e 4 130
e 4 132
e 4 140
e 4 142
e 4 147
e 4 148
e 4 150
e 4 153
e 4 157
e 4 159
e 4 161
e 4 162
e 4 163
e 4 165
e 4 167
e 4 169
e 4 177
e 4 178
e 4 185
e 4 186
e 4 188
e 4 192
e 4 193
e 4 195
e 4 197
e 4 200
e 5 105
e 5 109
e 5 112
e 5 114
e 5 118
e 5 119
e 5 122
e 5 126
e 5 127
e 5 129
e 5 132
e 5 135
e 5 141
e 5 145
e 5 152
e 5 164
e 5 170
e 5 178
e 5 182
e 5 183
e 5 184
e 5 185
e 5 186
e 5 188
e 5 191
e 5 194
e 5 197
e 5 199
e 6 101
e 6 106
e 6 107
e 6 115
e 6 117
e 6 118
e 6 122
e 6 123
e 6 124
e 6 126
e 6 130
e 6 131
e 6 132
e 6 133
e 6 136
e 6 137
e 6 139
e 6 140
e 6 142
e 6 146
e 6 154
e 6 157
e 6 158
e 6 160
e 6 161
e 6 162
e 6 164
e 6 166
e 6 168
e 6 169
e 6 172
e 6 177
e 6 180
e 6 181
e 6 182
e 6 185
e 6 187
e 6 190
e 6 191
e 6 193
e 6 197
e 6 198
e 6 199
e 6 200
e 7 101
e 7 102
e 7 104
e 7 109
e 7 111
e 7 113
e 7 114
e 7 121
e 7 122
e 7 130
e 7 132
e 7 133
e 7 134
e 7 135
e 7 143
e 7 147
e 7 152
e 7 153
e 7 154
e 7 155
e 7 160
e 7 162
e 7 163
e 7 168
e 7 172
e 7 173
e 7 177
e 7 178
e 7 179
e 7 180
e 7 184
e 7 186
e 7 187
e 7 188
e 7 190
e 7 191
e 7 198
e 7 199
e 8 101
e 8 102
e 8 104
e 8 106
e 8 107
e 8 112
e 8 113
e 8 114
e 8 116
e 8 117
e 8 119
e 8 120
e 8 121
e 8 123
e 8 125
e 8 126
e 8 128
e 8 132
e 8 134
e 8 135
e 8 138
e 8 140
e 8 141
e 8 142
e 8 143
e 8 145
e 8 151
e 8 152
e 8 154
e 8 157
e 8 160
e 8 161
e 8 165
e 8 168
e 8 169
e 8 171
e 8 174
e 8 176
e 8 179
e 8 186
e 8 187
e 8 188
e 8 190
e 8 192
e 8 194
e 8 197
e 8 200
e 9 102
e 9 106
e 9 107
e 9 109
e 9 111
e 9 112
e 9 113
e 9 114
e 9 116
e 9 119
e 9 120
e 9 121
e 9 122
e 9 127
e 9 132
e 9 134
e 9 135
e 9 138
e 9 142
e 9 146
e 9 147
e 9 151
e 9 156
e 9 159
e 9 161
e 9 162
e 9 163
e 9 164
e 9 167
e 9 169
e 9 175
e 9 176
e 9 178
e 9 179
e 9 181
e 9 185
e 9 186
e 9 192
e 9 194
e 9 198
e 9 199
e 9 200
e 10 101
e 10 105
e 10 107
e 10 109
e 10 113
e 10 119
e 10 121
e 10 123
e 10 125
e 10 127
e 10 128
e 10 129
e 10 131
e 10 132
e 10 134
e 10 136
e 10 137
e 10 138
e 10 143
e 10 149
e 10 150
e 10 151
e 10 155
e 10 158
e 10 159
e 10 161
e 10 163
e 10 165
e 10 169
e 10 175
e 10 177
e 10 182
e 10 183
e 10 189
e 10 191
e 10 198
e 10 199
e 11 103
e 11 107
e 11 111
e 11 113
e 11 114
e 11 119
e 11 120
e 11 126
e 11 127
e 11 129
e 11 133
e 11 135
e 11 136
e 11 139
e 11 140
e 11 143
e 11 144
e 11 145
e 11 146
e 11 147
e 11 148
e 11 150
e 11 151
e 11 154
e 11 158
e 11 160
e 11 163
e 11 164
e 11 168
e 11 169
e 11 171
e 11 172
e 11 174
e 11 175
e 11 178
e 11 180
e 11 181
e 11 182
e 11 183
e 11 185
e 11 186
e 11 187
e 11 189
e 11 190
e 11 199
e 11 200
e 12 102
e 12 104
e 12 105
e 12 108
e 12 112
e 12 114
e 12 116
e 12 117
e 12 118
e 12 120
e 12 121
e 12 122
e 12 132
e 12 133
e 12 136
e 12 138
e 12 139
e 12 142
e 12 144
e 12 150
e 12 153
e 12 156
e 12 159
e 12 161
e 12 163
e 12 168
e 12 170
e 12 171
e 12 176
e 12 180
e 12 183
e 12 184
e 12 185
e 12 187
e 12 188
e 12 189
e 12 190
e 12 192
e 12 193
e 12 195
e 12 200
e 13 102
e 13 104
e 13 105
e 13 112
e 13 113
e 13 114
e 13 115
e 13 117
e 13 118
e 13 120
e 13 121
e 13 124
e 13 126
e 13 128
e 13 138
e 13 140
e 13 145
e 13 148
e 13 149
e 13 152
e 13 153
e 13 155
e 13 157
e 13 160
e 13 161
e 13 162
e 13 164
e 13 165
e 13 167
e 13 168
e 13 169
e 13 174
e 13 175
e 13 176
e 13 178
e 13 190
e 13 192
e 13 196
e 13 198
e 14 101
e 14 105
e 14 106
e 14 107
e 14 111
e 14 114
e 14 115
e 14 122
e 14 125
e 14 128
e 14 131
e 14 133
e 14 145
e 14 146
e 14 150
e 14 155
e 14 156
e 14 157
e 14 158
e 14 160
e 14 164
e 14 165
e 14 168
e 14 170
e 14 173
e 14 174
e 14 179
e 14 180
e 14 191
e 14 194
e 14 195
e 14 197
e 14 199
e 14 200
e 15 102
e 15 104
e 15 106
e 15 115
e 15 116
e 15 117
e 15 121
e 15 122
e 15 124
e 15 128
e 15 131
e 15 133
e 15 135
e 15 137
e 15 139
e 15 146
e 15 147
e 15 148
e 15 149
e 15 150
e 15 153
e 15 155
e 15 156
e 15 157
e 15 158
e 15 159
e 15 163
e 15 172
e 15 173
e 15 179
e 15 182
e 15 186
e 15 187
e 15 188
e 15 189
e 15 193
e 15 195
e 15 196
e 15 199
e 16 105
e 16 106
e 16 110
e 16 114
e 16 124
e 16 125
e 16 127
e 16 128
e 16 131
e 16 134
e 16 135
e 16 138
e 16 139
e 16 140
e 16 142
e 16 144
e 16 147
e 16 148
e 16 150
e 16 152
e 16 153
e 16 156
e 16 161
e 16 162
e 16 168
e 16 169
e 16 170
e 16 171
e 16 172
e 16 173
e 16 175
e 16 180
e 16 184
e 16 187
e 16 189
e 16 193
e 16 194
e 16 195
e 16 196
e 17 102
e 17 108
e 17 109
e 17 110
e 17 112
e 17 113
e 17 114
e 17 119
e 17 121
e 17 123
e 17 124
e 17 126
e 17 127
e 17 128
e 17 133
e 17 135
e 17 137
e 17 152
e 17 157
e 17 159
e 17 160
e 17 161
e 17 163
e 17 164
e 17 167
e 17 168
e 17 169
e 17 171
e 17 172
e 17 173
e 17 178
e 17 180
e 17 183
e 17 184
e 17 186
e 17 187
e 17 189
e 17 190
e 17 191
e 17 194
e 17 197
e 18 103
e 18 105
e 18 106
e 18 108
e 18 111
e 18 115
e 18 117
e 18 120
e 18 121
e 18 125
e 18 129
e 18 132
e 18 133
e 18 138
e 18 140
e 18 141
e 18 144
e 18 146
e 18 147
e 18 148
e 18 150
e 18 152
e 18 155
e 18 161
e 18 170
e 18 175
e 18 176
e 18 186
e 18 187
e 18 189
e 18 193
e 18 194
e 18 198
e 19 102
e 19 108
e 19 110
e 19 114
e 19 115
e 19 116
e 19 118
e 19 119
e 19 121
e 19 122
e 19 124
e 19 125
e 19 128
e 19 130
e 19 132
e 19 133
e 19 136
e 19 137
e 19 139
e 19 141
e 19 142
e 19 143
e 19 147
e 19 148
e 19 150
e 19 156
e 19 157
e 19 158
e 19 160
e 19 163
e 19 164
e 19 166
e 19 168
e 19 172
e 19 173
e 19 176
e 19 177
e 19 178
e 19 179
e 19 180
e 19 184
e 19 194
e 19 197
e 19 198
e 20 102
e 20 104
e 20 108
e 20 109
e 20 110
e 20 115
e 20 116
e 20 117
e 20 118
e 20 120
e 20 121
e 20 126
e 20 130
e 20 131
e 20 132
e 20 133
e 20 134
e 20 135
e 20 136
e 20 138
e 20 139
e 20 140
e 20 141
e 20 143
e 20 147
e 20 154
e 20 158
e 20 160
e 20 161
e 20 167
e 20 168
e 20 171
e 20 172
e 20 177
e 20 180
e 20 181
e 20 182
e 20 184
e 20 187
e 20 188
e 20 190
e 20 191
e 20 193
e 20 194
e 20 197
e 20 200
e 21 105
e 21 106
e 21 107
e 21 108
e 21 114
e 21 116
e 21 120
e 21 124
e 21 129
e 21 130
e 21 133
e 21 134
e 21 138
e 21 141
e 21 142
e 21 148
e 21 149
e 21 151
e 21 153
e 21 156
e 21 158
e 21 159
e 21 162
e 21 165
e 21 166
e 21 167
e 21 169
e 21 176
e 21 180
e 21 181
e 21 182
e 21 185
e 21 186
e 21 187
e 21 189
e 21 192
e 21 193
e 21 198
e 21 199
e 22 102
e 22 104
e 22 105
e 22 108
e 22 109
e 22 111
e 22 114
e 22 118
e 22 123
e 22 125
e 22 126
e 22 127
e 22 128
e 22 131
e 22 132
e 22 133
e 22 138
e 22 139
e 22 140
e 22 143
e 22 145
e 22 146
e 22 147
e 22 151
e 22 152
e 22 154
e 22 157
e 22 159
e 22 164
e 22 166
e 22 167
e 22 169
e 22 171
e 22 172
e 22 173
e 22 184
e 22 187
e 22 191
e 22 195
e 22 197
e 22 199
e 23 101
e 23 102
e 23 105
e 23 106
e 23 107
e 23 109
e 23 110
e 23 111
e 23 112
e 23 116
e 23 119
e 23 123
e 23 126
e 23 128
e 23 131
e 23 133
e 23 134
e 23 139
e 23 140
e 23 142
e 23 144
e 23 145
e 23 146
e 23 148
e 23 150
e 23 152
e 23 153
e 23 155
e 23 156
e 23 157
e 23 159
e 23 161
e 23 162
e 23 163
e 23 164
e 23 167
e 23 168
e 23 171
e 23 176
e 23 177
e 23 181
e 23 182
e 23 185
e 23 190
e 23 192
e 23 193
e 23 194
e 23 197
e 24 101
e 24 105
e 24 107
e 24 108
e 24 110
e 24 111
e 24 117
e 24 120
e 24 123
e 24 125
e 24 127
e 24 128
e 24 131
e 24 132
e 24 140
e 24 145
e 24 148
e 24 150
e 24 154
e 24 159
e 24 160
e 24 161
e 24 166
e 24 170
e 24 171
e 24 172
e 24 173
e 24 176
e 24 177
e 24 180
e 24 181
e 24 188
e 24 191
e 24 192
e 24 193
e 24 194
e 24 196
e 24 197
e 25 107
e 25 109
e 25 112
e 25 113
e 25 114
e 25 115
e 25 123
e 25 124
e 25 126
e 25 127
e 25 129
e 25 130
e 25 131
e 25 133
e 25 136
e 25 137
e 25 139
e 25 144
e 25 145
e 25 146
e 25 148
e 25 150
e 25 152
e 25 153
e 25 156
e 25 157
e 25 163
e 25 165
e 25 167
e 25 169
e 25 170
e 25 172
e 25 179
e 25 180
e 25 183
e 25 184
e 25 185
e 25 189
e 25 190
e 25 191
e 25 192
e 25 194
e 25 195
e 25 196
e 25 198
e 25 199
e 25 200
e 26 101
e 26 105
e 26 106
e 26 107
e 26 112
e 26 114
e 26 117
e 26 119
e 26 122
e 26 123
e 26 124
e 26 126
e 26 128
e 26 129
e 26 136
e 26 138
e 26 140
e 26 141
e 26 144
e 26 146
e 26 149
e 26 150
e 26 153
e 26 154
e 26 155
e 26 158
e 26 160
e 26 161
e 26 167
e 26 172
e 26 174
e 26 178
e 26 179
e 26 180
e 26 186
e 26 187
e 26 190
e 26 191
e 26 193
e 26 198
e 26 200
e 27 107
e 27 108
e 27 116
e 27 117
e 27 120
e 27 122
e 27 126
e 27 127
e 27 129
e 27 130
e 27 135
e 27 137
e 27 138
e 27 140
e 27 142
e 27 143
e 27 144
e 27 145
e 27 149
e 27 160
e 27 163
e 27 164
e 27 170
e 27 171
e 27 172
e 27 174
e 27 176
e 27 181
e 27 184
e 27 187
e 27 189
e 27 195
e 27 196
e 27 197
e 27 198
e 27 199
e 28 101
e 28 102
e 28 106
e 28 109
e 28 113
e 28 114
e 28 115
e 28 116
e 28 118
e 28 119
e 28 123
e 28 128
e 28 129
e 28 133
e 28 135
e 28 137
e 28 138
e 28 142
e 28 144
e 28 147
e 28 154
e 28 156
e 28 157
e 28 160
e 28 161
e 28 162
e 28 164
e 28 165
e 28 169
e 28 170
e 28 172
e 28 173
e 28 181
e 28 182
e 28 184
e 28 188
e 28 195
e 28 196
e 28 197
e 28 198
e 28 199
e 29 103
e 29 104
e 29 106
e 29 112
e 29 115
e 29 116
e 29 118
e 29 120
e 29 121
e 29 122
e 29 124
e 29 127
e 29 131
e 29 135
e 29 136
e 29 137
e 29 144
e 29 145
e 29 146
e 29 150
e 29 151
e 29 156
e 29 157
e 29 159
e 29 160
e 29 164
e 29 167
e 29 168
e 29 170
e 29 175
e 29 177
e 29 180
e 29 181
e 29 182
e 29 183
e 29 185
e 29 190
e 29 192
e 29 195
e 29 196
e 30 112
e 30 115
e 30 120
e 30 122
e 30 124
e 30 125
e 30 126
e 30 127
e 30 133
e 30 135
e 30 137
e 30 139
e 30 145
e 30 146
e 30 148
e 30 149
e 30 150
e 30 151
e 30 152
e 30 156
e 30 157
e 30 158
e 30 160
e 30 162
e 30 166
e 30 167
e 30 168
e 30 169
e 30 171
e 30 175
e 30 180
e 30 187
e 30 188
e 30 194
e 30 197
e 30 199
e 31 107
e 31 108
e 31 109
e 31 112
e 31 113
e 31 122
e 31 124
e 31 127
e 31 129
e 31 136
e 31 138
e 31 141
e 31 143
e 31 144
e 31 147
e 31 149
e 31 155
e 31 157
e 31 159
e 31 164
e 31 165
e 31 166
e 31 167
e 31 171
e 31 173
e 31 175
e 31 176
e 31 179
e 31 183
e 31 185
e 31 187
e 31 189
e 31 191
e 31 199
e 32 101
e 32 102
e 32 104
e 32 107
e 32 108
e 32 109
e 32 111
e 32 115
e 32 119
e 32 125
e 32 129
e 32 137
e 32 140
e 32 146
e 32 149
e 32 154
e 32 156
e 32 157
e 32 159
e 32 164
e 32 166
e 32 171
e 32 173
e 32 175
e 32 177
e 32 178
e 32 179
e 32 182
e 32 183
e 32 186
e 32 187
e 32 188
e 32 192
e 32 194
e 32 196
e 32 198
e 32 200
e 33 102
e 33 103
e 33 105
e 33 108
e 33 110
e 33 111
e 33 117
e 33 120
e 33 124
e 33 126
e 33 127
e 33 129
e 33 131
e 33 134
e 33 136
e 33 137
e 33 138
e 33 139
e 33 143
e 33 147
e 33 148
e 33 151
e 33 156
e 33 157
e 33 162
e 33 164
e 33 168
e 33 171
e 33 173
e 33 175
e 33 176
e 33 178
e 33 179
e 33 182
e 33 183
e 33 184
e 33 185
e 33 186
e 33 187
e 33 188
e 33 191
e 33 193
e 33 194
e 33 196
e 33 197
e 33 200
e 34 102
e 34 104
e 34 108
e 34 110
e 34 113
e 34 114
e 34 120
e 34 125
e 34 129
e 34 132
e 34 135
e 34 138
e 34 139
e 34 142
e 34 143
e 34 144
e 34 145
e 34 147
e 34 149
e 34 152
e 34 154
e 34 157
e 34 161
e 34 162
e 34 166
e 34 168
e 34 170
e 34 179
e 34 184
e 34 186
e 34 189
e 34 190
e 34 192
e 34 193
e 34 198
e 35 103
e 35 111
e 35 114
e 35 117
e 35 121
e 35 125
e 35 127
e 35 130
e 35 132
e 35 133
e 35 134
e 35 137
e 35 142
e 35 144
e 35 145
e 35 146
e 35 149
e 35 151
e 35 152
e 35 153
e 35 155
e 35 156
e 35 157
e 35 162
e 35 163
e 35 164
e 35 165
e 35 167
e 35 168
e 35 171
e 35 172
e 35 173
e 35 175
e 35 176
e 35 177
e 35 178
e 35 183
e 35 184
e 35 186
e 35 191
e 35 198
e 36 101
e 36 103
e 36 106
e 36 111
e 36 115
e 36 116
e 36 117
e 36 119
e 36 124
e 36 125
e 36 127
e 36 129
e 36 133
e 36 137
e 36 138
e 36 145
e 36 149
e 36 151
e 36 152
e 36 153
e 36 154
e 36 156
e 36 158
e 36 160
e 36 161
e 36 162
e 36 163
e 36 167
e 36 169
e 36 170
e 36 172
e 36 177
e 36 181
e 36 184
e 36 188
e 36 190
e 36 200
e 37 103
e 37 104
e 37 106
e 37 109
e 37 111
e 37 116
e 37 117
e 37 121
e 37 123
e 37 126
e 37 128
e 37 130
e 37 133
e 37 134
e 37 137
e 37 138
e 37 141
e 37 143
e 37 146
e 37 148
e 37 149
e 37 151
e 37 152
e 37 153
e 37 154
e 37 156
e 37 157
e 37 158
e 37 161
e 37 168
e 37 169
e 37 172
e 37 174
e 37 177
e 37 180
e 37 181
e 37 186
e 37 190
e 37 193
e 37 197
e 37 199
e 37 200
e 38 105
e 38 107
e 38 108
e 38 111
e 38 114
e 38 116
e 38 119
e 38 121
e 38 122
e 38 124
e 38 125
e 38 126
e 38 128
e 38 138
e 38 141
e 38 143
e 38 144
e 38 149
e 38 150
e 38 155
e 38 156
e 38 160
e 38 165
e 38 167
e 38 170
e 38 172
e 38 173
e 38 174
e 38 177
e 38 178
e 38 179
e 38 180
e 38 181
e 38 183
e 38 194
e 38 196
e 39 103
e 39 104
e 39 107
e 39 111
e 39 112
e 39 114
e 39 115
e 39 117
e 39 119
e 39 120
e 39 125
e 39 127
e 39 128
e 39 129
e 39 130
e 39 131
e 39 137
e 39 139
e 39 140
e 39 141
e 39 142
e 39 146
e 39 147
e 39 151
e 39 156
e 39 159
e 39 162
e 39 163
e 39 165
e 39 167
e 39 171
e 39 177
e 39 183
e 39 188
e 39 191
e 39 192
e 39 195
e 39 196
e 39 199
e 40 102
e 40 103
e 40 105
e 40 106
e 40 114
e 40 117
e 40 118
e 40 123
e 40 124
e 40 127
e 40 128
e 40 129
e 40 130
e 40 134
e 40 136
e 40 137
e 40 139
e 40 140
e 40 141
e 40 143
e 40 145
e 40 146
e 40 154
e 40 155
e 40 156
e 40 157
e 40 158
e 40 161
e 40 162
e 40 164
e 40 166
e 40 169
e 40 176
e 40 180
e 40 181
e 40 182
e 40 183
e 40 187
e 40 188
e 40 190
e 40 194
e 40 200
e 41 101
e 41 105
e 41 106
e 41 111
e 41 114
e 41 117
e 41 121
e 41 122
e 41 125
e 41 126
e 41 127
e 41 129
e 41 130
e 41 132
e 41 133
e 41 136
e 41 137
e 41 139
e 41 140
e 41 142
e 41 144
e 41 145
e 41 148
e 41 151
e 41 154
e 41 155
e 41 161
e 41 162
e 41 171
e 41 173
e 41 182
e 41 189
e 41 190
e 41 193
e 41 194
e 41 197
e 42 102
e 42 103
e 42 110
e 42 111
e 42 118
e 42 119
e 42 120
e 42 121
e 42 123
e 42 124
e 42 126
e 42 127
e 42 130
e 42 132
e 42 135
e 42 136
e 42 141
e 42 142
e 42 146
e 42 147
e 42 149
e 42 150
e 42 151
e 42 154
e 42 155
e 42 156
e 42 158
e 42 159
e 42 160
e 42 164
e 42 165
e 42 166
e 42 167
e 42 170
e 42 173
e 42 176
e 42 178
e 42 179
e 42 180
e 42 182
e 42 186
e 42 191
e 42 192
e 42 193
e 42 194
e 42 197
e 43 102
e 43 103
e 43 104
e 43 111
e 43 113
e 43 114
e 43 116
e 43 123
e 43 124
e 43 125
e 43 126
e 43 128
e 43 129
e 43 135
e 43 138
e 43 139
e 43 144
e 43 147
e 43 151
e 43 158
e 43 160
e 43 163
e 43 165
e 43 166
e 43 170
e 43 171
e 43 174
e 43 178
e 43 180
e 43 181
e 43 183
e 43 185
e 43 187
e 43 191
e 43 192
e 44 104
e 44 105
e 44 106
e 44 107
e 44 109
e 44 111
e 44 113
e 44 115
e 44 119
e 44 121
e 44 123
e 44 124
e 44 127
e 44 129
e 44 131
e 44 138
e 44 139
e 44 142
e 44 143
e 44 145
e 44 148
e 44 149
e 44 151
e 44 152
e 44 154
e 44 156
e 44 159
e 44 163
e 44 165
e 44 169
e 44 170
e 44 172
e 44 174
e 44 176
e 44 177
e 44 181
e 44 182
e 44 193
e 44 197
e 45 101
e 45 110
e 45 112
e 45 117
e 45 119
e 45 120
e 45 122
e 45 123
e 45 124
e 45 131
e 45 133
e 45 136
e 45 137
e 45 138
e 45 140
e 45 147
e 45 148
e 45 149
e 45 151
e 45 152
e 45 159
e 45 164
e 45 165
e 45 169
e 45 173
e 45 174
e 45 176
e 45 177
e 45 181
e 45 182
e 45 184
e 45 189
e 45 191
e 45 196
e 45 197
e 45 199
e 45 200
e 46 104
e 46 105
e 46 110
e 46 113
e 46 114
e 46 115
e 46 116
e 46 119
e 46 142
e 46 143
e 46 145
e 46 148
e 46 150
e 46 152
e 46 153
e 46 155
e 46 156
e 46 158
e 46 160
e 46 165
e 46 170
e 46 175
e 46 179
e 46 180
e 46 181
e 46 182
e 46 190
e 46 191
e 46 195
e 46 196
e 46 198
e 46 200
e 47 107
e 47 109
e 47 111
e 47 112
e 47 118
e 47 125
e 47 127
e 47 130
e 47 131
e 47 132
e 47 133
e 47 136
e 47 139
e 47 140
e 47 146
e 47 159
e 47 160
e 47 161
e 47 162
e 47 165
e 47 170
e 47 171
e 47 175
e 47 177
e 47 179
e 47 185
e 47 186
e 47 191
e 47 193
e 47 194
e 47 197
e 47 198
e 47 200
e 48 102
e 48 103
e 48 105
e 48 107
e 48 108
e 48 110
e 48 111
e 48 114
e 48 116
e 48 117
e 48 120
e 48 121
e 48 122
e 48 126
e 48 127
e 48 135
e 48 137
e 48 140
e 48 141
e 48 150
e 48 153
e 48 156
e 48 157
e 48 158
e 48 159
e 48 161
e 48 164
e 48 166
e 48 168
e 48 169
e 48 170
e 48 171
e 48 172
e 48 173
e 48 175
e 48 179
e 48 182
e 48 183
e 48 185
e 48 194
e 48 198
e 48 199
e 49 101
e 49 106
e 49 107
e 49 108
e 49 110
e 49 113
e 49 116
e 49 118
e 49 119
e 49 122
e 49 123
e 49 126
e 49 129
e 49 132
e 49 137
e 49 138
e 49 142
e 49 145
e 49 146
e 49 151
e 49 155
e 49 157
e 49 161
e 49 163
e 49 165
e 49 166
e 49 170
e 49 179
e 49 187
e 49 190
e 49 193
e 49 196
e 49 197
e 49 198
e 49 199
e 50 101
e 50 105
e 50 106
e 50 108
e 50 110
e 50 113
e 50 117
e 50 128
e 50 130
e 50 133
e 50 134
e 50 135
e 50 137
e 50 141
e 50 147
e 50 148
e 50 150
e 50 151
e 50 152
e 50 153
e 50 160
e 50 161
e 50 165
e 50 167
e 50 168
e 50 170
e 50 173
e 50 180
e 50 183
e 50 184
e 50 185
e 50 192
e 50 196
e 50 198
e 50 200
e 51 102
e 51 103
e 51 105
e 51 108
e 51 112
e 51 118
e 51 119
e 51 121
e 51 122
e 51 123
e 51 125
e 51 130
e 51 131
e 51 136
e 51 138
e 51 140
e 51 143
e 51 145
e 51 149
e 51 150
e 51 160
e 51 163
e 51 170
e 51 171
e 51 178
e 51 180
e 51 181
e 51 190
e 51 191
e 51 193
e 51 196
e 51 197
e 51 198
e 51 199
e 52 105
e 52 108
e 52 109
e 52 112
e 52 114
e 52 115
e 52 116
e 52 117
e 52 119
e 52 122
e 52 123
e 52 126
e 52 127
e 52 131
e 52 133
e 52 134
e 52 140
e 52 141
e 52 143
e 52 144
e 52 148
e 52 150
e 52 151
e 52 152
e 52 153
e 52 154
e 52 163
e 52 170
e 52 174
e 52 175
e 52 176
e 52 178
e 52 179
e 52 180
e 52 181
e 52 182
e 52 183
e 52 190
e 52 191
e 52 192
e 52 193
e 52 195
e 52 199
e 53 102
e 53 105
e 53 108
e 53 110
e 53 112
e 53 115
e 53 116
e 53 117
e 53 118
e 53 119
e 53 123
e 53 126
e 53 134
e 53 135
e 53 138
e 53 143
e 53 145
e 53 146
e 53 147
e 53 151
e 53 153
e 53 158
e 53 161
e 53 162
e 53 165
e 53 168
e 53 169
e 53 170
e 53 176
e 53 179
e 53 180
e 53 181
e 53 182
e 53 189
e 53 195
e 53 197
e 54 113
e 54 114
e 54 115
e 54 116
e 54 117
e 54 119
e 54 124
e 54 125
e 54 129
e 54 131
e 54 132
e 54 134
e 54 136
e 54 137
e 54 140
e 54 142
e 54 145
e 54 147
e 54 150
e 54 154
e 54 156
e 54 160
e 54 161
e 54 163
e 54 164
e 54 168
e 54 174
e 54 176
e 54 178
e 54 179
e 54 180
e 54 181
e 54 184
e 54 185
e 54 187
e 54 189
e 54 190
e 54 192
e 54 194
e 54 195
e 55 103
e 55 109
e 55 111
e 55 113
e 55 117
e 55 118
e 55 121
e 55 123
e 55 127
e 55 128
e 55 131
e 55 137
e 55 142
e 55 147
e 55 149
e 55 151
e 55 152
e 55 153
e 55 157
e 55 159
e 55 165
e 55 168
e 55 169
e 55 170
e 55 171
e 55 175
e 55 180
e 55 183
e 55 184
e 55 188
e 55 189
e 55 190
e 55 192
e 55 194
e 55 195
e 56 102
e 56 103
e 56 122
e 56 125
e 56 127
e 56 128
e 56 129
e 56 130
e 56 132
e 56 133
e 56 137
e 56 139
e 56 142
e 56 148
e 56 151
e 56 153
e 56 156
e 56 157
e 56 164
e 56 166
e 56 169
e 56 170
e 56 174
e 56 176
e 56 179
e 56 184
e 56 186
e 56 188
e 56 191
e 56 192
e 56 195
e 56 196
e 56 200
e 57 101
e 57 102
e 57 104
e 57 106
e 57 110
e 57 112
e 57 116
e 57 117
e 57 131
e 57 133
e 57 134
e 57 141
e 57 143
e 57 144
e 57 150
e 57 151
e 57 153
e 57 154
e 57 158
e 57 162
e 57 165
e 57 173
e 57 174
e 57 175
e 57 177
e 57 180
e 57 186
e 57 187
e 57 188
e 57 195
e 57 197
e 57 198
e 57 199
e 58 102
e 58 105
e 58 106
e 58 108
e 58 113
e 58 114
e 58 115
e 58 116
e 58 118
e 58 126
e 58 128
e 58 129
e 58 132
e 58 134
e 58 137
e 58 138
e 58 139
e 58 141
e 58 145
e 58 146
e 58 147
e 58 148
e 58 150
e 58 153
e 58 154
e 58 155
e 58 157
e 58 158
e 58 160
e 58 162
e 58 164
e 58 167
e 58 168
e 58 170
e 58 171
e 58 173
e 58 180
e 58 182
e 58 184
e 58 190
e 58 192
e 58 194
e 58 196
e 58 197
e 58 199
e 59 102
e 59 103
e 59 104
e 59 105
e 59 107
e 59 108
e 59 111
e 59 117
e 59 118
e 59 120
e 59 122
e 59 123
e 59 125
e 59 126
e 59 127
e 59 132
e 59 134
e 59 142
e 59 146
e 59 149
e 59 151
e 59 152
e 59 154
e 59 155
e 59 156
e 59 157
e 59 161
e 59 164
e 59 172
e 59 173
e 59 176
e 59 178
e 59 185
e 59 189
e 59 190
e 59 191
e 59 192
e 59 193
e 59 197
e 59 200
e 60 101
e 60 102
e 60 103
e 60 105
e 60 108
e 60 112
e 60 115
e 60 116
e 60 118
e 60 121
e 60 123
e 60 124
e 60 125
e 60 127
e 60 129
e 60 130
e 60 132
e 60 133
e 60 138
e 60 143
e 60 149
e 60 154
e 60 156
e 60 157
e 60 158
e 60 159
e 60 163
e 60 164
e 60 166
e 60 169
e 60 177
e 60 179
e 60 183
e 60 184
e 60 187
e 60 188
e 60 192
e 60 199
e 61 103
e 61 107
e 61 114
e 61 117
e 61 120
e 61 121
e 61 124
e 61 126
e 61 127
e 61 136
e 61 138
e 61 139
e 61 141
e 61 145
e 61 146
e 61 149
e 61 151
e 61 152
e 61 156
e 61 158
e 61 160
e 61 162
e 61 166
e 61 168
e 61 169
e 61 170
e 61 171
e 61 173
e 61 176
e 61 178
e 61 180
e 61 181
e 61 184
e 61 189
e 61 195
e 61 196
e 61 197
e 62 101
e 62 102
e 62 103
e 62 104
e 62 108
e 62 112
e 62 113
e 62 114
e 62 118
e 62 119
e 62 124
e 62 125
e 62 128
e 62 129
e 62 132
e 62 133
e 62 136
e 62 138
e 62 139
e 62 143
e 62 151
e 62 154
e 62 155
e 62 156
e 62 157
e 62 158
e 62 159
e 62 160
e 62 163
e 62 164
e 62 168
e 62 170
e 62 171
e 62 175
e 62 177
e 62 178
e 62 179
e 62 183
e 62 185
e 62 186
e 62 200
e 63 101
e 63 111
e 63 116
e 63 118
e 63 121
e 63 122
e 63 123
e 63 124
e 63 125
e 63 126
e 63 127
e 63 132
e 63 133
e 63 134
e 63 137
e 63 139
e 63 141
e 63 142
e 63 144
e 63 145
e 63 149
e 63 150
e 63 152
e 63 155
e 63 161
e 63 164
e 63 165
e 63 166
e 63 168
e 63 171
e 63 172
e 63 176
e 63 177
e 63 179
e 63 180
e 63 182
e 63 183
e 63 185
e 63 192
e 63 193
e 63 197
e 63 199
e 63 200
e 64 101
e 64 105
e 64 106
e 64 108
e 64 113
e 64 114
e 64 115
e 64 117
e 64 120
e 64 125
e 64 126
e 64 129
e 64 132
e 64 135
e 64 138
e 64 141
e 64 142
e 64 143
e 64 152
e 64 153
e 64 155
e 64 156
e 64 158
e 64 159
e 64 162
e 64 163
e 64 164
e 64 166
e 64 168
e 64 169
e 64 170
e 64 174
e 64 182
e 64 183
e 64 184
e 64 187
e 64 188
e 64 190
e 64 192
e 64 193
e 64 195
e 64 197
e 64 199
e 65 102
e 65 103
e 65 104
e 65 106
e 65 110
e 65 112
e 65 114
e 65 118
e 65 119
e 65 122
e 65 135
e 65 136
e 65 139
e 65 143
e 65 146
e 65 147
e 65 149
e 65 152
e 65 155
e 65 159
e 65 161
e 65 165
e 65 167
e 65 168
e 65 172
e 65 173
e 65 174
e 65 178
e 65 181
e 65 185
e 65 187
e 65 188
e 65 189
e 65 190
e 65 197
e 66 102
e 66 106
e 66 107
e 66 108
e 66 111
e 66 112
e 66 114
e 66 119
e 66 121
e 66 122
e 66 124
e 66 128
e 66 130
e 66 131
e 66 139
e 66 140
e 66 147
e 66 154
e 66 156
e 66 158
e 66 161
e 66 163
e 66 164
e 66 165
e 66 171
e 66 172
e 66 173
e 66 179
e 66 184
e 66 188
e 66 189
e 66 191
e 66 193
e 66 194
e 66 195
e 66 199
e 67 101
e 67 102
e 67 104
e 67 106
e 67 111
e 67 114
e 67 119
e 67 121
e 67 126
e 67 131
e 67 133
e 67 134
e 67 138
e 67 140
e 67 141
e 67 144
e 67 145
e 67 146
e 67 148
e 67 152
e 67 153
e 67 162
e 67 163
e 67 164
e 67 166
e 67 167
e 67 171
e 67 175
e 67 181
e 67 182
e 67 184
e 67 185
e 67 188
e 67 189
e 67 190
e 67 195
e 67 199
e 67 200
e 68 101
e 68 102
e 68 104
e 68 107
e 68 109
e 68 112
e 68 113
e 68 114
e 68 117
e 68 119
e 68 121
e 68 122
e 68 124
e 68 128
e 68 130
e 68 132
e 68 133
e 68 135
e 68 137
e 68 139
e 68 140
e 68 142
e 68 146
e 68 147
e 68 148
e 68 149
e 68 150
e 68 153
e 68 157
e 68 158
e 68 159
e 68 160
e 68 161
e 68 162
e 68 163
e 68 165
e 68 166
e 68 169
e 68 170
e 68 171
e 68 172
e 68 173
e 68 181
e 68 183
e 68 187
e 68 188
e 68 191
e 68 194
e 68 195
e 68 196
e 68 200
e 69 104
e 69 105
e 69 107
e 69 108
e 69 109
e 69 112
e 69 113
e 69 117
e 69 119
e 69 120
e 69 121
e 69 122
e 69 125
e 69 126
e 69 127
e 69 129
e 69 131
e 69 132
e 69 135
e 69 138
e 69 139
e 69 140
e 69 142
e 69 144
e 69 145
e 69 147
e 69 150
e 69 152
e 69 153
e 69 155
e 69 157
e 69 158
e 69 160
e 69 161
e 69 163
e 69 164
e 69 165
e 69 166
e 69 168
e 69 169
e 69 170
e 69 183
e 69 187
e 69 190
e 69 192
e 69 196
e 69 197
e 69 198
e 70 112
e 70 113
e 70 114
e 70 116
e 70 121
e 70 128
e 70 131
e 70 134
e 70 137
e 70 138
e 70 142
e 70 143
e 70 144
e 70 146
e 70 148
e 70 149
e 70 150
e 70 152
e 70 153
e 70 154
e 70 156
e 70 161
e 70 164
e 70 165
e 70 166
e 70 167
e 70 172
e 70 175
e 70 176
e 70 178
e 70 179
e 70 183
e 70 187
e 70 190
e 70 192
e 70 195
e 70 198
e 71 102
e 71 104
e 71 106
e 71 108
e 71 113
e 71 115
e 71 116
e 71 117
e 71 122
e 71 123
e 71 125
e 71 132
e 71 135
e 71 139
e 71 144
e 71 146
e 71 147
e 71 149
e 71 153
e 71 157
e 71 158
e 71 159
e 71 160
e 71 165
e 71 167
e 71 170
e 71 172
e 71 173
e 71 180
e 71 181
e 71 182
e 71 185
e 71 187
e 71 189
e 71 194
e 71 198
e 72 101
e 72 102
e 72 103
e 72 106
e 72 109
e 72 111
e 72 112
e 72 114
e 72 118
e 72 119
e 72 122
e 72 123
e 72 125
e 72 127
e 72 130
e 72 131
e 72 132
e 72 137
e 72 138
e 72 140
e 72 143
e 72 146
e 72 150
e 72 158
e 72 160
e 72 161
e 72 164
e 72 165
e 72 168
e 72 174
e 72 175
e 72 179
e 72 182
e 72 184
e 72 186
e 72 187
e 72 190
e 72 192
e 72 194
e 72 195
e 72 199
e 73 102
e 73 106
e 73 107
e 73 108
e 73 109
e 73 110
e 73 112
e 73 113
e 73 116
e 73 119
e 73 121
e 73 124
e 73 127
e 73 128
e 73 130
e 73 131
e 73 133
e 73 134
e 73 135
e 73 136
e 73 138
e 73 140
e 73 144
e 73 147
e 73 148
e 73 150
e 73 154
e 73 156
e 73 159
e 73 167
e 73 169
e 73 171
e 73 172
e 73 173
e 73 178
e 73 179
e 73 180
e 73 181
e 73 182
e 73 187
e 73 188
e 73 189
e 73 190
e 73 193
e 73 194
e 73 198
e 73 199
e 73 200
e 74 104
e 74 111
e 74 112
e 74 114
e 74 118
e 74 120
e 74 122
e 74 127
e 74 132
e 74 134
e 74 138
e 74 142
e 74 143
e 74 144
e 74 145
e 74 146
e 74 147
e 74 151
e 74 152
e 74 154
e 74 158
e 74 160
e 74 161
e 74 162
e 74 163
e 74 164
e 74 173
e 74 175
e 74 185
e 74 197
e 74 198
e 75 101
e 75 102
e 75 103
e 75 107
e 75 111
e 75 112
e 75 113
e 75 114
e 75 115
e 75 117
e 75 119
e 75 120
e 75 124
e 75 125
e 75 132
e 75 133
e 75 134
e 75 135
e 75 136
e 75 139
e 75 142
e 75 143
e 75 146
e 75 149
e 75 150
e 75 151
e 75 158
e 75 159
e 75 162
e 75 163
e 75 164
e 75 168
e 75 169
e 75 173
e 75 175
e 75 176
e 75 178
e 75 181
e 75 184
e 75 186
e 75 199
e 76 102
e 76 107
e 76 110
e 76 114
e 76 118
e 76 122
e 76 124
e 76 126
e 76 130
e 76 132
e 76 137
e 76 141
e 76 143
e 76 145
e 76 148
e 76 149
e 76 150
e 76 154
e 76 155
e 76 156
e 76 157
e 76 159
e 76 161
e 76 162
e 76 166
e 76 167
e 76 168
e 76 169
e 76 173
e 76 179
e 76 183
e 76 187
e 76 190
e 76 191
e 76 192
e 76 193
e 76 194
e 76 195
e 76 197
e 76 199
e 77 101
e 77 102
e 77 103
e 77 107
e 77 109
e 77 112
e 77 114
e 77 115
e 77 116
e 77 117
e 77 120
e 77 122
e 77 124
e 77 125
e 77 126
e 77 132
e 77 133
e 77 135
e 77 136
e 77 139
e 77 142
e 77 145
e 77 146
e 77 152
e 77 153
e 77 154
e 77 158
e 77 160
e 77 161
e 77 164
e 77 168
e 77 174
e 77 175
e 77 180
e 77 185
e 77 186
e 77 189
e 77 197
e 77 198
e 77 199
e 78 101
e 78 105
e 78 109
e 78 111
e 78 113
e 78 116
e 78 118
e 78 127
e 78 130
e 78 131
e 78 132
e 78 134
e 78 138
e 78 144
e 78 146
e 78 148
e 78 149
e 78 152
e 78 153
e 78 154
e 78 155
e 78 159
e 78 160
e 78 161
e 78 162
e 78 170
e 78 171
e 78 173
e 78 180
e 78 183
e 78 189
e 78 194
e 78 196
e 78 197
e 78 200
e 79 103
e 79 104
e 79 106
e 79 108
e 79 113
e 79 117
e 79 119
e 79 120
e 79 121
e 79 125
e 79 129
e 79 131
e 79 136
e 79 139
e 79 140
e 79 141
e 79 142
e 79 144
e 79 145
e 79 147
e 79 151
e 79 152
e 79 153
e 79 156
e 79 157
e 79 158
e 79 162
e 79 164
e 79 166
e 79 168
e 79 169
e 79 170
e 79 171
e 79 172
e 79 173
e 79 174
e 79 175
e 79 182
e 79 196
e 79 199
e 80 101
e 80 107
e 80 111
e 80 112
e 80 117
e 80 121
e 80 123
e 80 127
e 80 128
e 80 129
e 80 130
e 80 131
e 80 132
e 80 133
e 80 135
e 80 137
e 80 139
e 80 141
e 80 143
e 80 146
e 80 147
e 80 148
e 80 149
e 80 152
e 80 154
e 80 157
e 80 158
e 80 159
e 80 160
e 80 161
e 80 162
e 80 163
e 80 166
e 80 168
e 80 169
e 80 170
e 80 172
e 80 173
e 80 176
e 80 177
e 80 180
e 80 181
e 80 182
e 80 183
e 80 185
e 80 187
e 80 193
e 80 195
e 80 196
e 80 197
e 81 101
e 81 102
e 81 107
e 81 108
e 81 109
e 81 111
e 81 113
e 81 117
e 81 118
e 81 119
e 81 123
e 81 126
e 81 127
e 81 133
e 81 134
e 81 135
e 81 138
e 81 140
e 81 144
e 81 145
e 81 146
e 81 148
e 81 149
e 81 154
e 81 156
e 81 157
e 81 158
e 81 159
e 81 162
e 81 175
e 81 178
e 81 181
e 81 183
e 81 187
e 81 193
e 81 194
e 81 195
e 81 197
e 81 198
e 81 199
e 81 200
e 82 105
e 82 106
e 82 110
e 82 113
e 82 115
e 82 117
e 82 122
e 82 128
e 82 129
e 82 133
e 82 136
e 82 144
e 82 146
e 82 150
e 82 151
e 82 152
e 82 154
e 82 155
e 82 156
e 82 162
e 82 163
e 82 165
e 82 171
e 82 172
e 82 177
e 82 178
e 82 179
e 82 180
e 82 188
e 82 189
e 82 190
e 82 196
e 82 198
e 82 199
e 82 200
e 83 101
e 83 106
e 83 109
e 83 114
e 83 115
e 83 117
e 83 118
e 83 119
e 83 121
e 83 124
e 83 132
e 83 133
e 83 134
e 83 136
e 83 143
e 83 145
e 83 149
e 83 150
e 83 152
e 83 157
e 83 158
e 83 159
e 83 161
e 83 163
e 83 164
e 83 168
e 83 170
e 83 173
e 83 177
e 83 178
e 83 186
e 83 188
e 83 190
e 83 191
e 83 193
e 83 196
e 84 102
e 84 105
e 84 107
e 84 110
e 84 115
e 84 118
e 84 119
e 84 123
e 84 127
e 84 130
e 84 133
e 84 141
e 84 142
e 84 143
e 84 145
e 84 146
e 84 147
e 84 148
e 84 150
e 84 153
e 84 154
e 84 155
e 84 156
e 84 157
e 84 160
e 84 162
e 84 166
e 84 168
e 84 170
e 84 173
e 84 186
e 84 189
e 84 192
e 84 194
e 84 196
e 85 102
e 85 103
e 85 110
e 85 112
e 85 113
e 85 116
e 85 117
e 85 120
e 85 125
e 85 129
e 85 130
e 85 131
e 85 134
e 85 135
e 85 136
e 85 137
e 85 139
e 85 140
e 85 148
e 85 149
e 85 152
e 85 153
e 85 156
e 85 157
e 85 159
e 85 162
e 85 163
e 85 168
e 85 169
e 85 171
e 85 174
e 85 176
e 85 182
e 85 183
e 85 185
e 85 186
e 85 187
e 85 189
e 85 190
e 85 193
e 85 194
e 85 196
e 85 197
e 85 199
e 86 101
e 86 103
e 86 105
e 86 109
e 86 110
e 86 113
e 86 114
e 86 116
e 86 117
e 86 119
e 86 120
e 86 121
e 86 123
e 86 124
e 86 126
e 86 128
e 86 131
e 86 133
e 86 140
e 86 141
e 86 143
e 86 146
e 86 149
e 86 153
e 86 154
e 86 156
e 86 158
e 86 159
e 86 166
e 86 168
e 86 172
e 86 175
e 86 180
e 86 182
e 86 184
e 86 185
e 86 186
e 86 190
e 86 191
e 86 192
e 86 193
e 86 195
e 86 198
e 86 199
e 87 101
e 87 103
e 87 113
e 87 118
e 87 119
e 87 124
e 87 125
e 87 128
e 87 129
e 87 130
e 87 135
e 87 139
e 87 145
e 87 149
e 87 150
e 87 151
e 87 154
e 87 156
e 87 157
e 87 158
e 87 159
e 87 160
e 87 169
e 87 174
e 87 175
e 87 177
e 87 178
e 87 179
e 87 185
e 87 190
e 87 191
e 87 197
e 87 199
e 88 101
e 88 102
e 88 104
e 88 112
e 88 113
e 88 115
e 88 116
e 88 119
e 88 120
e 88 121
e 88 123
e 88 124
e 88 125
e 88 128
e 88 130
e 88 131
e 88 133
e 88 134
e 88 135
e 88 136
e 88 139
e 88 148
e 88 149
e 88 156
e 88 160
e 88 161
e 88 162
e 88 163
e 88 164
e 88 165
e 88 169
e 88 170
e 88 175
e 88 176
e 88 181
e 88 183
e 88 185
e 88 187
e 88 188
e 88 189
e 88 190
e 88 191
e 88 193
e 88 195
e 89 104
e 89 105
e 89 106
e 89 108
e 89 110
e 89 111
e 89 112
e 89 114
e 89 115
e 89 116
e 89 119
e 89 121
e 89 122
e 89 126
e 89 127
e 89 129
e 89 134
e 89 135
e 89 136
e 89 139
e 89 140
e 89 146
e 89 150
e 89 151
e 89 154
e 89 155
e 89 157
e 89 158
e 89 159
e 89 160
e 89 163
e 89 166
e 89 175
e 89 178
e 89 182
e 89 183
e 89 184
e 89 185
e 89 186
e 89 188
e 89 189
e 89 190
e 89 191
e 89 196
e 89 199
e 89 200
e 90 104
e 90 106
e 90 109
e 90 110
e 90 114
e 90 115
e 90 116
e 90 118
e 90 119
e 90 127
e 90 132
e 90 134
e 90 140
e 90 147
e 90 152
e 90 153
e 90 158
e 90 160
e 90 161
e 90 162
e 90 164
e 90 168
e 90 170
e 90 171
e 90 177
e 90 179
e 90 180
e 90 185
e 90 191
e 90 192
e 90 193
e 90 195
e 90 196
e 90 198
e 90 200
e 91 104
e 91 105
e 91 109
e 91 112
e 91 118
e 91 119
e 91 120
e 91 122
e 91 126
e 91 129
e 91 132
e 91 135
e 91 136
e 91 139
e 91 142
e 91 146
e 91 149
e 91 151
e 91 152
e 91 154
e 91 155
e 91 157
e 91 160
e 91 161
e 91 167
e 91 168
e 91 169
e 91 170
e 91 172
e 91 177
e 91 178
e 91 184
e 91 185
e 91 186
e 91 187
e 91 194
e 92 101
e 92 102
e 92 105
e 92 106
e 92 113
e 92 115
e 92 119
e 92 120
e 92 126
e 92 132
e 92 136
e 92 140
e 92 141
e 92 142
e 92 143
e 92 149
e 92 150
e 92 151
e 92 154
e 92 156
e 92 157
e 92 158
e 92 159
e 92 165
e 92 167
e 92 170
e 92 173
e 92 174
e 92 177
e 92 180
e 92 181
e 92 183
e 92 184
e 92 186
e 92 188
e 92 189
e 92 193
e 92 197
e 92 198
e 92 199
e 93 101
e 93 102
e 93 106
e 93 109
e 93 110
e 93 115
e 93 118
e 93 121
e 93 124
e 93 125
e 93 132
e 93 134
e 93 142
e 93 145
e 93 147
e 93 148
e 93 150
e 93 151
e 93 152
e 93 154
e 93 155
e 93 156
e 93 160
e 93 162
e 93 164
e 93 165
e 93 166
e 93 168
e 93 170
e 93 172
e 93 173
e 93 176
e 93 177
e 93 190
e 93 191
e 93 194
e 93 196
e 93 200
e 94 103
e 94 104
e 94 106
e 94 109
e 94 116
e 94 117
e 94 118
e 94 119
e 94 125
e 94 126
e 94 128
e 94 129
e 94 133
e 94 135
e 94 138
e 94 139
e 94 144
e 94 146
e 94 150
e 94 151
e 94 156
e 94 157
e 94 158
e 94 159
e 94 161
e 94 162
e 94 166
e 94 168
e 94 170
e 94 173
e 94 175
e 94 176
e 94 177
e 94 179
e 94 182
e 94 183
e 94 184
e 94 185
e 94 188
e 94 190
e 94 191
e 94 193
e 94 195
e 94 197
e 95 101
e 95 103
e 95 109
e 95 111
e 95 112
e 95 113
e 95 114
e 95 116
e 95 118
e 95 120
e 95 121
e 95 123
e 95 124
e 95 125
e 95 126
e 95 127
e 95 128
e 95 130
e 95 132
e 95 133
e 95 134
e 95 137
e 95 143
e 95 144
e 95 145
e 95 147
e 95 148
e 95 152
e 95 157
e 95 158
e 95 159
e 95 166
e 95 173
e 95 175
e 95 180
e 95 181
e 95 184
e 95 185
e 95 186
e 95 190
e 95 191
e 95 194
e 95 197
e 96 112
e 96 117
e 96 122
e 96 124
e 96 129
e 96 130
e 96 131
e 96 132
e 96 134
e 96 138
e 96 142
e 96 144
e 96 145
e 96 146
e 96 148
e 96 150
e 96 153
e 96 154
e 96 155
e 96 158
e 96 161
e 96 167
e 96 169
e 96 171
e 96 173
e 96 176
e 96 178
e 96 181
e 96 182
e 96 187
e 96 190
e 96 191
e 96 192
e 96 193
e 96 198
e 97 101
e 97 102
e 97 103
e 97 105
e 97 107
e 97 108
e 97 109
e 97 111
e 97 115
e 97 117
e 97 118
e 97 119
e 97 120
e 97 124
e 97 125
e 97 126
e 97 127
e 97 128
e 97 129
e 97 130
e 97 135
e 97 137
e 97 138
e 97 140
e 97 148
e 97 150
e 97 152
e 97 161
e 97 162
e 97 168
e 97 169
e 97 171
e 97 172
e 97 174
e 97 179
e 97 182
e 97 183
e 97 184
e 97 186
e 97 188
e 97 189
e 97 191
e 97 195
e 98 103
e 98 108
e 98 109
e 98 112
e 98 118
e 98 121
e 98 123
e 98 133
e 98 135
e 98 138
e 98 143
e 98 146
e 98 149
e 98 151
e 98 155
e 98 156
e 98 160
e 98 166
e 98 168
e 98 170
e 98 176
e 98 178
e 98 182
e 98 183
e 98 185
e 98 187
e 98 191
e 98 192
e 98 197
e 98 199
e 99 113
e 99 114
e 99 115
e 99 117
e 99 118
e 99 119
e 99 123
e 99 124
e 99 126
e 99 128
e 99 135
e 99 137
e 99 138
e 99 139
e 99 141
e 99 143
e 99 144
e 99 145
e 99 151
e 99 152
e 99 157
e 99 158
e 99 159
e 99 160
e 99 161
e 99 166
e 99 168
e 99 169
e 99 171
e 99 172
e 99 173
e 99 176
e 99 179
e 99 181
e 99 183
e 99 185
e 99 186
e 99 187
e 99 198
e 99 199
e 100 106
e 100 107
e 100 108
e 100 109
e 100 110
e 100 112
e 100 113
e 100 116
e 100 117
e 100 119
e 100 121
e 100 122
e 100 125
e 100 132
e 100 135
e 100 137
e 100 138
e 100 140
e 100 144
e 100 145
e 100 149
e 100 151
e 100 152
e 100 155
e 100 159
e 100 165
e 100 170
e 100 171
e 100 172
e 100 173
e 100 176
e 100 179
e 100 181
e 100 182
e 100 186
e 100 187
e 100 188
e 100 190
e 100 192
e 100 194
e 100 198
e 100 199
